%NProcShared=8
%mem=500MW
%chk=pyridone.chk
#P UB971/6-311+G(d,p) optimization(tight) gfinput population(regular) frequency integral(grid=ultrafine)
 
Optimisation and calculation of frequencies
 
0 1
 N -1.136899928 -0.2462407444 -0.013699836
 C -1.136899928 1.1184262456 -0.013699836
 C 0.0128909161 -1.069848258 1.553377E-4
 O -0.1080286244 -2.2906817264 -0.0013017632
 H -2.1107604677 1.5965205408 -0.0254350198
 C 1.254955718 1.0568683214 0.0151224281
 C 0.0401915765 1.8068503995 4.843153E-4
 C 1.2507849629 -0.3090764702 0.0150721698
 H 2.2026336579 1.5902963947 0.0265421072
 H 0.0428008107 2.8899473761 5.15757E-4
 H 2.1674962152 -0.8880122637 0.0261186951
 H -2.0111811977 -0.7589344555 -0.0242350728
 
