#P B3LYP/6-311+G(d,p) OPT FREQ 

aniline/cl complex basis

0 2
C 
C 1 B1
C 1 B2 2 A1
C 1 B3 2 A2 3 D1
C 1 B4 2 A3 3 D2
C 1 B5 2 A4 3 D3
H 1 B6 2 A5 3 D4
N 1 B7 2 A6 3 D5
H 1 B8 2 A7 3 D6
H 1 B9 2 A8 3 D7
H 1 B10 2 A9 3 D8
H 1 B11 2 A10 3 D9
Cl 1 B12 2 A11 3 D10
H 1 B13 2 A12 3 D11
H 1 B14 2 A13 3 D12

A10 146.35417
A11 94.976847
A12 20.883482
B1 1.4137156
A13 51.626387
B2 2.4376482
B3 2.7931418
B4 2.4198055
B5 1.3719747
B6 1.0845621
B7 2.4075346
B8 3.4182886
B10 3.3893396
B9 3.8756876
B11 2.1303927
B12 3.9469696
B13 3.3173994
B14 2.6130421
D10 40.562612
D11 174.71630
D12 176.97631
D1 0.5872052
D2 1.5069669
D3 1.1966737
A1 30.442663
D4 -179.41655
A2 59.858811
D5 -178.86021
A3 90.186312
A4 120.24059
D6 -0.4521061
D7 0.6233312
A5 119.28418
D8 -0.9557625
A6 29.145531
D9 1.7817298
A7 21.239494
A8 60.068010
A9 99.362195

