#N B3LYP/6-31G(d) OPT FREQ 

CH3

0 2
C 
H 1 B1
H 1 B2 2 A1
H 1 B3 2 A2 3 D1

D1 -180.00000
B1 1.0900000
B2 1.0900000
A1 120.00000
B3 1.0900000
A2 120.00000

