#P B3LYP/6-311+G(d,p) OPT FREQ 

fluorobz basis

0 1
C 
C 1 B1
C 2 B2 1 A1
C 3 B3 2 A2 1 D1
C 4 B4 3 A3 2 D2
C 1 B5 2 A4 3 D3
H 6 B6 1 A5 2 D4
H 5 B7 4 A6 3 D5
F 4 B8 3 A7 2 D6
H 3 B9 2 A8 1 D7
H 2 B10 1 A9 6 D8
H 1 B11 2 A10 3 D9

A5 120.11912
D6 179.91919
A6 119.48227
D7 -179.99256
A7 118.96974
D8 179.99986
A8 121.88734
D9 -179.97093
A9 120.11912
A10 120.09221
B1 1.3915522
B2 1.3909565
B3 1.3856111
B4 1.3856111
B5 1.3915522
B6 1.0837737
B7 1.0828095
B8 1.3463255
B9 1.0828095
B10 1.0837737
B11 1.0833543
D1 0.0114204
D2 0.0189887
A1 120.43160
D3 -0.0411201
A2 118.63039
D4 -179.99986
A3 122.06046
A4 119.81555
D5 179.97713

