#P B3LYP/6-311+G(d,p) OPT FREQ 

aniline basis2

0 1
C 
C 1 B1
C 1 B2 2 A1
C 1 B3 2 A2 3 D1
C 1 B4 2 A3 3 D2
C 1 B5 2 A4 3 D3
H 1 B6 2 A5 3 D4
N 1 B7 2 A6 3 D5
H 1 B8 2 A7 3 D6
H 1 B9 2 A8 3 D7
H 1 B10 2 A9 3 D8
H 1 B11 2 A10 3 D9
H 1 B12 2 A11 3 D10
H 1 B13 2 A12 3 D11

A10 146.84657
A11 21.148571
A12 51.343445
B1 1.4013890
B2 2.4076020
B3 2.7739687
B4 2.4169105
B5 1.3878783
B6 1.0855545
B7 2.4283499
B8 3.3929610
B10 3.3992533
B9 3.8584975
B11 2.1378549
B12 3.2875534
B13 2.6018251
D10 166.84198
D11 172.36044
D1 0.0011330
D2 0.0039622
D3 0.0023913
A1 30.794862
D4 -179.68538
A2 60.815921
D5 -177.26138
A3 90.922179
A4 120.55606
D6 -0.2371821
D7 0.0178912
A5 119.43344
D8 0.0087104
A6 29.506484
D9 0.0515798
A7 21.654183
A8 60.647452
A9 100.05431

