%NProcShared=8
%mem=500MW
%chk=si.chk
#P UB971/6-311+G(d,p) optimization(tight) gfinput population(regular) frequency integral(grid=ultrafine)
 
Optimisation and calculation of frequencies
 
0 1
 Si 0.0 0.0 0.0
 O 0.0 0.0 1.66095
 C 1.8092 0.0 -0.50081
 C -0.87842 -1.53806 -0.65089
 C -0.87841 1.53814 -0.65065
 H 1.92536 -4.0E-5 -1.582
 H 2.32111 0.8763 -0.11287
 H 2.32116 -0.87623 -0.11279
 H -0.86041 -1.57158 -1.738
 H -0.40472 -2.4459 -0.28662
 H -1.92263 -1.56915 -0.34667
 H -0.86028 1.572 -1.73775
 H -1.92259 1.56935 -0.34634
 H -0.40465 2.44586 -0.28612
 H -0.83038 -1.3E-4 2.11438
 
