 start john_fukui
 title "John's example for Fukui"
 
 geometry units an noautoz nocenter noautosym
   C    -2.7874000000  1.0093000000  0.0350000000
   C    -3.3765000000 -0.2605000000  0.0490000000
   C    -2.5560000000 -1.3983000000  0.0301000000
   C    -1.1494000000 -1.3068000000 -0.0098000000
   C    -0.5293000000 -0.0061000000 -0.0220000000
   C    -1.3897000000  1.1247000000  0.0119000000
   O    -0.5817000000 -2.5695000000 -0.0791000000
   C     0.8056000000 -2.8255000000 -0.0385000000
   C     0.9919000000  0.2119000000 -0.1324000000
   C     1.6752000000  1.4983000000  0.3996000000
   N     3.1063000000  1.2849000000  0.2175000000
   C     1.3493000000  2.8304000000 -0.3012000000
   H    -3.4084000000  1.8929000000  0.0419000000
   H    -4.4519000000 -0.3565000000  0.0742000000
   H    -2.9984000000 -2.3834000000  0.0462000000
   H    -0.9283000000  2.1011000000  0.0196000000
   H     0.9797000000 -3.8991000000 -0.1106000000
   H     1.2931000000 -2.3220000000 -0.8733000000
   H     1.2169000000 -2.4535000000  0.8999000000
   H     1.5130000000 -0.5811000000  0.4038000000
   H     1.2866000000  0.1949000000 -1.1817000000
   H     1.4499000000  1.6184000000  1.4593000000
   H     3.6125000000  2.0942000000  0.5476000000
   H     3.3951000000  0.4711000000  0.7413000000
   H     1.8999000000  3.6388000000  0.1799000000
   H     1.6375000000  2.7694000000 -1.3506000000
   H     0.2796000000  3.0270000000 -0.2295000000
 end
 basis
   H library 6-31g**
   O library 6-31g**
   C library 6-31g**
   N library 6-31g**
 end
 dft
   xc b3lyp
 end
 set dft:condfukui 1
 print high
 task dft

