#P B3LYP/6-311+G(d,p) OPT FREQ 

nitrobz basis

0 1
C 
C 1 B1
C 2 B2 1 A1
C 3 B3 2 A2 1 D1
C 4 B4 3 A3 2 D2
C 1 B5 2 A4 3 D3
H 6 B6 1 A5 2 D4
H 5 B7 4 A6 3 D5
H 4 B8 3 A7 2 D6
H 3 B9 2 A8 1 D7
N 2 B10 1 A9 6 D8
O 11 B11 2 A10 1 D9
O 11 B12 2 A11 1 D10
H 1 B13 2 A12 3 D11

A10 117.61062
A11 117.61062
A12 119.48265
B1 1.3915129
B2 1.3915129
B3 1.3913077
B4 1.3955767
B5 1.3913077
B6 1.0862180
B7 1.0867101
B8 1.0862180
B10 1.4681740
B9 1.0837702
B11 1.2250607
B12 1.2250607
B13 1.0837702
D10 -0.0053911
D11 -179.99513
D1 -0.0095560
D2 0.0052177
D3 0.0095560
A1 122.31714
D4 -179.99470
A2 118.49979
D5 -179.98857
A3 120.17650
A4 118.49979
D6 179.99470
D7 179.99513
A5 119.61470
D8 -179.98781
A6 119.83486
D9 -179.99715
A7 119.61470
A8 119.48265
A9 118.84143

