#N B3LYP/6-31G(d) OPT FREQ 

CH4

0 1
C 
H 1 B1
H 1 B2 2 A1
H 1 B3 2 A2 3 D1
H 1 B4 2 A3 3 D2

B1 1.1130000
B2 1.1130002
B3 1.1130001
B4 1.1130002
A1 109.47124
A2 109.47119
D1 120.00000
A3 109.47123
D2 -120.00000

