#P B3LYP/6-311+G(d,p) OPT FREQ 

bromobz\cl complex basis

0 2
C 
C 1 B1
C 1 B2 2 A1
C 1 B3 2 A2 3 D1
C 1 B4 2 A3 3 D2
C 1 B5 2 A4 3 D3
H 1 B6 2 A5 3 D4
H 1 B7 2 A6 3 D5
H 1 B8 2 A7 3 D6
Br 1 B9 2 A8 3 D7
H 1 B10 2 A9 3 D8
H 1 B11 2 A10 3 D9
Cl 1 B12 2 A11 3 D10

A5 119.95787
D6 -0.5548287
A6 25.861513
D7 0.1976901
A7 20.610895
D8 0.7033246
A8 59.735012
D9 1.8490153
A9 98.859122
A10 145.31944
A11 97.791122
B1 1.4081071
B2 2.4203479
B3 2.7706445
B4 2.4203667
B5 1.4081093
B6 1.0807238
B7 2.1585204
B8 3.4067013
D10 -102.14947
B9 4.6685209
B10 3.4067191
B11 2.1585177
B12 2.5845929
D1 0.3413622
D2 0.7110541
A1 29.475017
D3 1.3993606
A2 59.734147
D4 172.33613
A3 89.992047
A4 119.45977
D5 -179.18726

