#P b3pw91/6-311+G(d,p) opt=(ts,noeigen,calcfc) freq=noraman 

me/cl b3pw91\6-311+G**

0 2
C 
H 1 B1
H 1 B2 2 A1
H 1 B3 2 A2 3 D1
H 2 B4 1 A3 3 D2
Cl 5 B5 2 A4 1 D3

B1 1.0837481
B2 1.0837412
B3 1.0837533
B4 2.0405337
B5 1.3962130
A1 117.62355
A2 117.62126
D1 -149.81572
A3 49.400889
D2 -105.08658
A4 148.35957
D3 179.98070

