#P B3LYP/6-311+G(d,p) OPT FREQ 

toluene basis2

0 1
C 
C 1 B1
C 1 B2 2 A1
C 1 B3 2 A2 3 D1
C 1 B4 2 A3 3 D2
C 1 B5 2 A4 3 D3
C 1 B6 2 A5 3 D4
H 1 B7 2 A6 3 D5
H 1 B8 2 A7 3 D6
H 1 B9 2 A8 3 D7
H 1 B10 2 A9 3 D8
H 1 B11 2 A10 3 D9
H 1 B12 2 A11 3 D10
H 1 B13 2 A12 3 D11
H 1 B14 2 A13 3 D12

A10 144.32604
A11 116.29351
A12 96.113548
B1 1.3963730
A13 143.92974
B2 2.4256395
B3 2.8088446
B4 2.4256482
B5 1.3962561
B6 1.5079737
B7 2.1482582
B8 3.4037437
B10 3.4037155
B9 3.8928636
B11 2.1481337
B12 2.1588454
B13 2.1617580
B14 2.1616851
D10 -146.69443
D11 167.38175
D12 159.15670
D1 0.0411589
D2 0.1377530
D3 0.2710065
A1 29.424456
D4 -178.57670
A2 59.100689
D5 179.86344
A3 88.774290
A4 118.20056
D6 0.1024522
D7 0.0822546
A5 120.88314
D8 0.2124208
A6 26.125017
D9 0.5787783
A7 20.074860
A8 59.100261
A9 98.125195

